TYPE : Vertex Cover
DIMENSION: 40
EDGE_DATA_SECTION:
0 2
0 3
0 6
0 13
0 16
0 18
0 23
0 24
0 36
0 39
1 6
1 9
1 10
1 16
1 21
1 23
1 26
1 27
1 28
1 32
1 35
2 4
2 7
2 8
2 10
2 11
2 27
2 33
2 38
2 39
3 9
3 10
3 17
3 19
3 22
3 25
3 27
3 34
4 5
4 8
4 16
4 22
4 24
4 27
4 34
4 38
5 8
5 10
5 11
5 13
5 16
5 19
5 22
5 25
5 32
5 34
5 35
5 36
5 37
6 8
6 10
6 14
6 18
6 23
6 25
6 26
6 27
6 32
6 35
7 9
7 12
7 15
7 16
7 19
7 24
7 26
7 30
8 9
8 13
8 17
8 21
8 22
8 24
8 26
8 29
8 35
9 10
9 15
9 17
9 19
9 20
9 25
9 27
9 33
10 11
10 12
10 13
10 14
10 15
10 17
10 23
10 25
10 26
10 27
10 31
11 13
11 16
11 19
11 32
11 35
11 39
12 20
12 21
12 29
12 31
12 35
12 37
13 20
13 23
13 24
13 30
13 37
13 39
14 15
14 16
14 20
14 29
14 30
14 36
14 37
15 20
15 23
15 28
15 33
15 36
16 19
16 23
16 24
16 29
16 32
16 36
17 21
17 22
17 25
17 27
17 31
17 32
17 37
18 21
18 22
18 29
18 37
19 20
19 21
19 24
19 28
19 29
19 39
20 26
20 28
20 29
20 33
20 34
20 35
20 36
21 23
21 24
21 26
21 28
21 31
21 32
21 33
21 35
22 24
22 28
22 32
22 36
22 37
22 38
23 29
23 30
23 31
23 34
23 38
24 29
24 30
24 35
24 36
24 37
25 26
25 29
25 30
25 31
25 34
26 33
26 35
26 37
27 29
27 32
27 33
27 34
27 35
28 29
28 34
28 36
28 39
29 36
29 38
30 33
30 34
30 39
31 32
31 33
31 39
32 35
32 37
32 39
33 34
33 38
33 39
34 36
34 37
37 38
37 39
-1
VERTEX_DEGREE:
10.0 11.0 10.0 9.0 9.0 14.0 12.0 9.0 13.0 12.0 17.0 9.0 8.0 11.0 9.0 9.0 13.0 11.0 6.0 12.0 13.0 14.0 12.0 13.0 14.0 11.0 11.0 13.0 10.0 14.0 9.0 9.0 13.0 12.0 12.0 12.0 11.0 13.0 7.0 11.0
VERTEX_COVER:
0 1 4 6 7 8 9 10 11 13 15 16 17 19 20 21 22 25 27 29 30 31 32 33 34 35 36 37 38 39
EOF
